92 73 48 30 26 24 8 69 40 10 80 89 41 39 85 66 21 43 38 74 93 95 44 84 61 57 42 17 1 37 98 3 96 63 51 52 14 77 79 12 23 94 28 16 18 33 90 5 70 71 75 19 27 25 4 15 11 64 6 68 2 47 50 59 49 45 31 9 76 36 32 54 86 67 62 35 65 55 60 53 13 58 78 20 22 29 97 87 88 56 99 72 7 91 46 81 34 82 0 83 

